50
120
98
96
93
92
91
91
91
90
90
90
89
89
88
88
84
82
77
76
76
75
74
73
72
69
69
66
65
59
59
58
57
56
54
53
52
52
51
51
49
48
47
47
46
42
41
40
39
36
35
33
